#SOLVERNAME# PAJ_Gurobi_MOSEK_msd
#SOLVER# Pajarito.PajaritoSolver(3, 3600.0, 1.0e-5, true, Gurobi.GurobiSolver(nothing, Any[(:OutputFlag, 1), (:Threads, 8), (:IntFeasTol, 1.0e-9), (:FeasibilityTol, 1.0e-8), (:MIPGap, 1.0e-5)]), Pajarito.UnsetSolver(), 0, false, true, Mosek.MosekSolver(Any[(:LOG, 0), (:NUM_THREADS, 8), (:MSK_DPAR_INTPNT_CO_TOL_REL_GAP, 1.0e-10), (:MSK_DPAR_INTPNT_CO_TOL_PFEAS, 1.0e-10), (:MSK_DPAR_INTPNT_CO_TOL_DFEAS, 1.0e-10), (:MSK_DPAR_INTPNT_CO_TOL_NEAR_REL, 1000.0)]), true, true, false, false, true, false, false, true, false, true, true, true, true, false, true, 10.0, true, false, false, true, 1.0e-12, 1.0e-8, false, "")
#INSTANCE# port_12_9_3_b_1.cbf.gz
#TIMELIMIT# 3600.0

Problem dimensions:
       variables |      91
     constraints |     170
   nonzeros in A |     454

Cones summary:
Cone             | Count   | Min dim.  | Max dim. 
    Second order |       1 |        13 |        13
   Primal expon. |      18 |         3 |         3
   Pos. semidef. |       1 |       7^2 |       7^2

Variable types:
      continuous |      67
         integer |      24

Transforming data...               0.00s

Creating conic subproblem...       0.22s

Building MIP model...              0.00s

Solving conic relaxation...        0.03s
 - Relaxation status    =        Optimal
 - Relaxation bound     =      -0.042571
Academic license - for non-commercial use only
Warning for adding constraints: zero or small (< 1e-13) coefficients, ignored
Optimize a model with 301 rows, 103 columns and 790 nonzeros
Variable types: 79 continuous, 24 integer (0 binary)
Coefficient statistics:
  Matrix range     [1e-13, 1e+02]
  Objective range  [1e-02, 3e-01]
  Bounds range     [0e+00, 0e+00]
  RHS range        [6e-13, 2e+01]
Warning: Model contains large matrix coefficient range
         Consider reformulating model or setting NumericFocus parameter
         to avoid numerical issues.
Found heuristic solution: objective 0.0000000
Presolve removed 187 rows and 1 columns
Presolve time: 0.00s
Presolved: 114 rows, 102 columns, 524 nonzeros
Variable types: 78 continuous, 24 integer (24 binary)

Root relaxation: objective -4.256944e-02, 110 iterations, 0.00 seconds

    Nodes    |    Current Node    |     Objective Bounds      |     Work
 Expl Unexpl |  Obj  Depth IntInf | Incumbent    BestBd   Gap | It/Node Time

     0     0   -0.04257    0    7    0.00000   -0.04257      -     -    0s
     0     0   -0.04257    0   18    0.00000   -0.04257      -     -    0s
     0     2   -0.04257    0   18    0.00000   -0.04257      -     -    0s
*  319   170              22      -0.0328693   -0.04237  28.9%  15.9    1s
*  811   325              21      -0.0337455   -0.04125  22.2%  16.0    1s
* 2250   685              17      -0.0343830   -0.03977  15.7%  15.1    1s
* 2656   709              17      -0.0344909   -0.03923  13.7%  15.0    1s
* 4630   789              16      -0.0345963   -0.03796  9.74%  14.5    1s

Cutting planes:
  Gomory: 1
  Implied bound: 2
  MIR: 1
  Flow cover: 4
  Lazy constraints: 580

Explored 7722 nodes (102607 simplex iterations) in 2.27 seconds
Thread count was 8 (of 16 available processors)

Solution count 6: -0.0345963 -0.0344909 -0.034383 ... 0

Solve interrupted
Best objective -3.459626326237e-02, best bound -3.470506744631e-02, gap 0.3145%

Starting MIP-solver-driven algorithm
Mosek problem is Mosek.MSK_PRO_STA_UNKNOWN, solution is Mosek.MSK_SOL_STA_UNKNOWN, response is Mosek.MSK_RES_OK

Mosek problem is Mosek.MSK_PRO_STA_UNKNOWN, solution is Mosek.MSK_SOL_STA_UNKNOWN, response is Mosek.MSK_RES_OK

Mosek problem is Mosek.MSK_PRO_STA_UNKNOWN, solution is Mosek.MSK_SOL_STA_UNKNOWN, response is Mosek.MSK_RES_OK

WARNING: Conic solver failure: returned status Unknown
WARNING: Conic solver failure: returned status Unknown
WARNING: Conic solver failure: returned status Unknown

MIP-solver-driven algorithm summary:
 - Status               =        Optimal
 - Best feasible        =  -3.470553e-02
 - Best bound           =  -3.470507e-02
 - Relative opt. gap    =     -1.326e-05
 - Total time (s)       =       2.55e+00

Timers (s):
 - Setup                =   2.19e-01
 -- Transform data      =   1.54e-04
 -- Create conic data   =   2.18e-01
 -- Create MIP data     =   5.51e-04
 - Algorithm            =   2.33e+00
 -- Solve relaxation    =   3.46e-02
 -- Get relaxation cuts =   2.30e-02
 -- MIP solver driving  =   2.27e+00
 -- Solve subproblems   =   4.62e-01
 -- Get subproblem cuts =   1.18e-02
 -- Get separation cuts =   3.80e-03

Counters:
 - Lazy callbacks       =    53
 -- Integer repeats     =    24
 -- Conic subproblems   =    30
 --- Infeasible         =     0
 --- Optimal            =    27
 --- Suboptimal         =     0
 --- UserLimit          =     0
 --- ConicFailure       =     0
 --- Other status       =     3
 -- Feasible solutions  =    28
 --- From subproblems   =    27
 --- In lazy callback   =     1
 - Heuristic callbacks  =  4392
 -- Solutions passed    =     9

Solution returned by conic solver

Rounds of full separation/subproblem cuts, and count of cuts added:
Cone             | Subp.  | Sep.   | Total  | Relax. | Viol. 
    Second order |     44 |      8 |    179 |     12 |    179
   Primal expon. |    810 |     99 |    384 |     18 |    384
   Pos. semidef. |     45 |     20 |     29 |      7 |     29

0 numerically unstable disaggregated SOC cuts

Distance to feasibility (negative indicates strict feasibility):
Cone             | Variable  | Constraint
          Linear |  0.00e+00 |  1.93e-07
    Second order |        NA | -1.34e-08
   Primal expon. |        NA |  4.25e-09
   Pos. semidef. |        NA | -1.41e-07

Distance to integrality of integer/binary variables:
         integer |  0.00e+00

#STATUS# Optimal
#OBJVAL# -0.0347055276181623
#OBJBOUND# -0.03470506744630889
#NODECOUNT# 7722
#TIMESOLVER# 2.5452380180358887
#TIMEALL# 2.5459978580474854
#SOLUTION# [0.07842100163603817,0.054651118588050496,0.0,0.0,0.0,0.0,0.0,0.0,0.0,0.0,0.0,0.0,0.0,0.0,0.0,0.0,0.0,0.08570390719381718,0.0,0.0,0.06485439651437878,0.028118283204913774,0.06499160964036316,0.0,-0.0,-0.0,1.0,-0.0,1.0,0.0,-0.0,-0.0,-0.0,-0.0,-0.0,-0.0,1.0,1.0,-0.0,-0.0,-0.0,1.0,0.0,-0.0,-0.0,-0.0,1.0,-0.0,8.688450833285437,0.030356408818683202,0.024423644327601583,0.0010059555513516388,0.0056662437430401265,0.0013226608781823355,0.0010230709566246313,0.0034616196650468674,0.0012033117138431915,0.0022844489912663716,0.0022907048956893493,0.004487701677369786,0.0014220842607888505,0.0016022244720332868,0.001434200003011199,0.001796417821635865,0.000944017877137826,0.00042103390706782484,0.032950763115884296,0.0016174590060800131,0.002298872777954042,0.022301056949002307,0.02020212753245577,0.021630994807942155,0.0013540926826795252,0.0016035030930624118,0.001435227453266802,0.0017980302534174617,0.0009444603086741859,0.0004211217577938501,0.033487770439191926,0.001618765848993654,0.0023015126199274314,0.02254789516703952,-0.001600933231609543,-0.0014331640756073654,-0.0017947967114322631,-0.0009435659175720193,-0.000420938396626611,-0.03240181772312057,-0.0016161435415033832,-0.0022962218203172132,-0.02205051239863461]
